167-166-165-170-171-169-172-106-105-104-107-108-88-87-82-75-81-80-78-79-89-103-102-90-92-91-101-100-99-98-97-96-95-93-94-77-76-74-73-72-71-70-69-66-68-67-57-58-62-63-64-65-84-83-86-85-115-112-111-109-110-113-114-116-117-61-60-59-42-41-44-43-56-55-45-54-53-47-48-49-50-51-52-46-40-39-38-37-36-35-34-33-32-31-30-29-28-27-26-25-21-24-22-23-16-17-18-19-20-127-126-125-124-123-122-121-120-119-118-156-157-158-159-174-160-161-162-163-164-187-188-189-190-191-193-195-196-192-185-186-184-183-182-181-180-179-178-149-148-138-137-265-264-139-140-147-146-141-142-145-144-143-199-198-197-194-200-201-202-203-204-205-206-211-212-215-216-219-220-221-222-223-218-217-214-213-210-209-208-207-251-252-253-256-255-254-229-250-249-244-245-230-231-232-228-227-226-225-224-233-234-235-236-237-238-239-240-241-242-243-246-248-247-277-278-2-279-1-0-3-4-5-276-275-8-6-7-9-10-11-12-13-14-15-270-271-272-273-274-260-259-258-257-261-262-263-266-136-135-134-267-268-269-133-132-131-130-129-128-153-154-152-155-151-150-177-176-175-173-168 2884